benchmarks_vrp/CMT5/min_c/CMT5_7.vrp
NAME: CMT5_7
TYPE: CVRP
COMMENT: 1291.29 - Cluster Nr.7
DIMENSION: 10
CAPACITY: 200
EDGE_WEIGHT_TYPE: EUC_2D
NODE_COORD_TYPE: TWOD_COORDS
NODE_COORD_SECTION: 
1 40 66
8 35 35
4 31 67
2 31 76
6 40 60
7 43 67
3 45 65
9 35 69
10 31 62
5 37 69
DEPOT_SECTION: 
8
-1
DEMAND_SECTION: 
2 25
6 21
8 0
3 9
10 23
4 3
9 23
7 14
1 26
5 11
EOF
