benchmarks_vrp/CMT5/min_c/CMT5_7.tour
NAME: CMT5_7 solution
TYPE: TOUR
TOUR_SECTION:
8 6 3 7 1 5 9 2 4 10 -1
-1
EOF